T = -2099;
S_i = [5, 47, -48, -25, -61, 96, 2, 6, -49, -79, 63, 81, -10, -51, -51, -63, -36, -80, 62, 7, 69, 48, -85, 8, -74, 73, -7, -6, -10, -54, -98, -96, 99, 84, 57, 14, 54, 25, -31, -25, -47, -30];